NAME /Users/henri/Research/solvers/instances/idol-instances/robust/collection/cbp_Subramanyam_et_al_2020/CapBud_N15_19/models/uncertain_technology_matrix/
ROWS
 N  OBJ
 L  capacity
 L  c_2085
 L  c_2086
 L  c_2087
 L  c_2088
 L  c_2089
 L  c_2090
 L  c_2091
 L  c_2092
 L  c_2093
 L  c_2094
 L  c_2095
 L  c_2096
 L  c_2097
 L  c_2098
 L  c_2099
COLUMNS
    MARKER    'MARKER'                 'INTORG'
    x_0        OBJ        -6.32802
    x_0        c_2085     1
    x_0        capacity   1.2656
    x_1        OBJ        -6.20425
    x_1        c_2086     1
    x_1        capacity   1.24085
    x_2        OBJ        -6.38818
    x_2        c_2087     1
    x_2        capacity   1.27764
    x_3        OBJ        -8.10372
    x_3        c_2088     1
    x_3        capacity   1.62074
    x_4        OBJ        -5.2586
    x_4        c_2089     1
    x_4        capacity   1.05172
    x_5        OBJ        -0.758545
    x_5        c_2090     1
    x_5        capacity   0.151709
    x_6        OBJ        -6.65513
    x_6        c_2091     1
    x_6        capacity   1.33103
    x_7        OBJ        -1.64995
    x_7        c_2092     1
    x_7        capacity   0.329991
    x_8        OBJ        -8.28707
    x_8        c_2093     1
    x_8        capacity   1.65741
    x_9        OBJ        -1.56543
    x_9        c_2094     1
    x_9        capacity   0.313085
    x_10       OBJ        -9.56448
    x_10       c_2095     1
    x_10       capacity   1.9129
    x_11       OBJ        -7.10352
    x_11       c_2096     1
    x_11       capacity   1.4207
    x_12       OBJ        -2.63386
    x_12       c_2097     1
    x_12       capacity   0.526772
    x_13       OBJ        -2.07459
    x_13       c_2098     1
    x_13       capacity   0.414919
    x_14       OBJ        -8.78257
    x_14       c_2099     1
    x_14       capacity   1.75651
    y_0        OBJ        -5.06241
    y_0        c_2085     1
    y_0        capacity   1.2656
    y_1        OBJ        -4.9634
    y_1        c_2086     1
    y_1        capacity   1.24085
    y_2        OBJ        -5.11054
    y_2        c_2087     1
    y_2        capacity   1.27764
    y_3        OBJ        -6.48298
    y_3        c_2088     1
    y_3        capacity   1.62074
    y_4        OBJ        -4.20688
    y_4        c_2089     1
    y_4        capacity   1.05172
    y_5        OBJ        -0.606836
    y_5        c_2090     1
    y_5        capacity   0.151709
    y_6        OBJ        -5.3241
    y_6        c_2091     1
    y_6        capacity   1.33103
    y_7        OBJ        -1.31996
    y_7        c_2092     1
    y_7        capacity   0.329991
    y_8        OBJ        -6.62965
    y_8        c_2093     1
    y_8        capacity   1.65741
    y_9        OBJ        -1.25234
    y_9        c_2094     1
    y_9        capacity   0.313085
    y_10       OBJ        -7.65159
    y_10       c_2095     1
    y_10       capacity   1.9129
    y_11       OBJ        -5.68281
    y_11       c_2096     1
    y_11       capacity   1.4207
    y_12       OBJ        -2.10709
    y_12       c_2097     1
    y_12       capacity   0.526772
    y_13       OBJ        -1.65967
    y_13       c_2098     1
    y_13       capacity   0.414919
    y_14       OBJ        -7.02605
    y_14       c_2099     1
    y_14       capacity   1.75651
    MARKER    'MARKER'                 'INTEND'
RHS
    RHS       capacity   40.679
    RHS       c_2085     1
    RHS       c_2086     1
    RHS       c_2087     1
    RHS       c_2088     1
    RHS       c_2089     1
    RHS       c_2090     1
    RHS       c_2091     1
    RHS       c_2092     1
    RHS       c_2093     1
    RHS       c_2094     1
    RHS       c_2095     1
    RHS       c_2096     1
    RHS       c_2097     1
    RHS       c_2098     1
    RHS       c_2099     1
BOUNDS
 LI BND       x_0        0
 UI BND       x_0        1
 LI BND       x_1        0
 UI BND       x_1        1
 LI BND       x_2        0
 UI BND       x_2        1
 LI BND       x_3        0
 UI BND       x_3        1
 LI BND       x_4        0
 UI BND       x_4        1
 LI BND       x_5        0
 UI BND       x_5        1
 LI BND       x_6        0
 UI BND       x_6        1
 LI BND       x_7        0
 UI BND       x_7        1
 LI BND       x_8        0
 UI BND       x_8        1
 LI BND       x_9        0
 UI BND       x_9        1
 LI BND       x_10       0
 UI BND       x_10       1
 LI BND       x_11       0
 UI BND       x_11       1
 LI BND       x_12       0
 UI BND       x_12       1
 LI BND       x_13       0
 UI BND       x_13       1
 LI BND       x_14       0
 UI BND       x_14       1
 LI BND       y_0        0
 UI BND       y_0        1
 LI BND       y_1        0
 UI BND       y_1        1
 LI BND       y_2        0
 UI BND       y_2        1
 LI BND       y_3        0
 UI BND       y_3        1
 LI BND       y_4        0
 UI BND       y_4        1
 LI BND       y_5        0
 UI BND       y_5        1
 LI BND       y_6        0
 UI BND       y_6        1
 LI BND       y_7        0
 UI BND       y_7        1
 LI BND       y_8        0
 UI BND       y_8        1
 LI BND       y_9        0
 UI BND       y_9        1
 LI BND       y_10       0
 UI BND       y_10       1
 LI BND       y_11       0
 UI BND       y_11       1
 LI BND       y_12       0
 UI BND       y_12       1
 LI BND       y_13       0
 UI BND       y_13       1
 LI BND       y_14       0
 UI BND       y_14       1
ENDATA
